
































































































59 86 23 105 51 110 64 
47 112 94 91 34 90 99 
38 58 5 3 2 
92 104 80 108 70 114 
103 77 107 101 49 53 57 
66 52 83 26 96 74 
55 43 31 93 111 16 102 
28 39 106 87 11 13 
76 81 73 41 12 75 
27 42 72 68 109 22 
30 7 9 33 113 69 32 
95 35 1 46 50 45 88 
21 6 89 54 29 98 67 
24 8 79 48 56 60 85 
61 18 15 100 71 78 44 
20 37 14 40 19 17 97 
63 65 82 84 25 10 
0 62 36 4 
